
Gurobi 12.0.1 (win64, C++) logging started Thu Apr 17 16:19:56 2025

Set parameter Username
Set parameter LicenseID to value 2618661
Academic license - for non-commercial use only - expires 2026-02-05
Set parameter Threads to value 8
Set parameter LazyConstraints to value 1
Set parameter PreCrush to value 1
Set parameter Seed to value 10
Set parameter Cuts to value -1
Set parameter TimeLimit to value 28800
Set parameter NumericFocus to value 0
Set parameter SolutionLimit to value 10000
Gurobi Optimizer version 12.0.1 build v12.0.1rc0 (win64 - Windows Server 2022.0 (20348.2))

CPU model: AMD EPYC 7513 32-Core Processor, instruction set [SSE2|AVX|AVX2]
Thread count: 18 physical cores, 18 logical processors, using up to 8 threads

Non-default parameters:
SolutionLimit  10000
TimeLimit  28800
PreCrush  1
Seed  10
Threads  8
LazyConstraints  1

Optimize a model with 359 rows, 676 columns and 1964 nonzeros
Model fingerprint: 0xb0f21c6a
Variable types: 0 continuous, 676 integer (676 binary)
Coefficient statistics:
  Matrix range     [1e+00, 1e+00]
  Objective range  [5e+00, 9e+01]
  Bounds range     [1e+00, 1e+00]
  RHS range        [1e+00, 8e+00]

User MIP start produced solution with objective 817.227 (0.02s)
Loaded user MIP start with objective 817.227

Presolve removed 47 rows and 105 columns
Presolve time: 0.03s
Presolved: 312 rows, 571 columns, 1645 nonzeros
Variable types: 0 continuous, 571 integer (571 binary)

Root relaxation: objective 4.668467e+02, 92 iterations, 0.00 seconds (0.00 work units)

    Nodes    |    Current Node    |     Objective Bounds      |     Work
 Expl Unexpl |  Obj  Depth IntInf | Incumbent    BestBd   Gap | It/Node Time

     0     0  466.84671    0    -  817.22727  466.84671  42.9%     -    0s
     0     0  492.83241    0   14  817.22727  492.83241  39.7%     -    0s
     0     0  499.90688    0    -  817.22727  499.90688  38.8%     -    0s
     0     0  538.60298    0   14  817.22727  538.60298  34.1%     -    0s
     0     0  539.35038    0   23  817.22727  539.35038  34.0%     -    0s
     0     0  570.28053    0   26  817.22727  570.28053  30.2%     -    0s
     0     0  570.28053    0   38  817.22727  570.28053  30.2%     -    0s
     0     0  570.28053    0   23  817.22727  570.28053  30.2%     -    0s
     0     2  580.35823    0   39  817.22727  580.35823  29.0%     -    0s
    57    70  608.89258    8   90  817.22727  599.74872  26.6%   138    5s
   149   164  610.09737   22   92  817.22727  599.74872  26.6%  93.2   10s
   427   466  614.28265   64   88  817.22727  599.74872  26.6%  57.4   15s
  1533  1482  624.85507   24   23  817.22727  602.04853  26.3%  43.3   22s
  1536  1484  614.33793   63  554  817.22727  607.75438  25.6%  43.3   25s
H 1542  1488                     701.5550105  610.03553  13.0%  43.1   29s
  1544  1489  663.91085   69  565  701.55501  610.13816  13.0%  43.0   30s
  1918  1737  626.68610   38  396  701.55501  610.33857  13.0%  55.5   35s
H 1923  1660                     696.2527598  610.33857  12.3%  55.7   35s
H 2001  1719                     650.0005558  610.33857  6.10%  56.9   36s
H 2249  1560                     630.1275730  610.39029  3.13%  57.3   37s
  3221  1468  619.93536   29  534  630.12757  612.78526  2.75%  60.4   40s
  6693  1172     cutoff   24       630.12757  618.87939  1.79%  60.8   45s
  9294   716     cutoff   30       630.12757  622.45857  1.22%  60.4   50s
 10774    35     cutoff   27       630.12757  624.56019  0.88%  59.1   55s

Cutting planes:
  Gomory: 6
  Clique: 1
  MIR: 1
  Flow cover: 8
  Zero half: 4
  Relax-and-lift: 1
  Lazy constraints: 523

Explored 11168 nodes (650345 simplex iterations) in 55.64 seconds (57.56 work units)
Thread count was 8 (of 18 available processors)

Solution count 5: 630.128 650.001 696.253 ... 817.227

Optimal solution found (tolerance 1.00e-04)
Best objective 6.301275729831e+02, best bound 6.301275729831e+02, gap 0.0000%

User-callback calls 23897, time in user-callback 16.96 sec
### START EXACT APPROACH ###
ProblemVariant: 2
### START PREPROCESSING ###
## Start infeasible path procedure ## 
Deleted arcs: 78
Infeasible tail paths: 8
Infeasible 2-node combinations: 39
## Start extended infeasible path procedure ##
Deleted arcs: 79
Infeasible tail paths: 7
Infeasible 2-node combinations: 39
## Start start solution procedure ##
Start solution with 8 Vehicles and total costs 817.227 in 8.9537 s.
### END PREPROCESSING ###
Route 0 0-2-4-25-10-0 : weight util 0.979167 | volume util 0.547733 | feasible with packing heuristic | feasible with CP model
Route 1 0-3-0 : weight util 0.854167 | volume util 0.046200 | feasible with packing heuristic | feasible with CP model
Route 2 0-12-11-8-9-0 : weight util 1.000000 | volume util 0.538333 | feasible with packing heuristic | feasible with CP model
Route 3 0-14-5-17-0 : weight util 0.958333 | volume util 0.606222 | feasible with packing heuristic | feasible with CP model
Route 4 0-16-13-7-1-0 : weight util 1.000000 | volume util 0.578311 | feasible with packing heuristic | feasible with CP model
Route 5 0-19-15-0 : weight util 0.937500 | volume util 0.334400 | feasible with packing heuristic | feasible with CP model
Route 6 0-22-18-24-0 : weight util 0.958333 | volume util 0.426689 | feasible with packing heuristic | feasible with CP model
Route 7 0-23-6-20-21-0 : weight util 0.958333 | volume util 0.536889 | infeasible with packing heuristic | feasible with CP model
